0 0 2 0
1 0 1 0
2 0 2 1
0 1 0 1
2 1 3 6
1 1 2 8
2 2 5 10
3 0 1 8
5 0 1 13
3 1 0 13
4 0 2 13
5 1 3 16
3 2 2 22
5 2 5 19
1 2 4 13
4 1 1 22
2 3 0 18
0 2 1 25
3 3 3 27
2 4 1 31
1 3 5 28
4 2 4 25
0 3 3 31
3 4 4 30
5 3 0 28
0 4 5 38
4 3 5 41
5 4 4 38
1 4 0 38
0 5 4 42
1 5 3 48
2 5 4 48
3 5 5 45
4 4 0 48
4 5 3 52
5 5 2 42
